CPXPARAM_Read_DataCheck                          1
Found incumbent of value 0.000000 after 0.00 sec. (0.03 ticks)
Tried aggregator 1 time.
MIP Presolve modified 1 coefficients.
Reduced MIP has 217 rows, 1005 columns, and 5017 nonzeros.
Reduced MIP has 1005 binaries, 0 generals, 0 SOSs, and 0 indicators.
Presolve time = 0.00 sec. (2.16 ticks)
Probing time = 0.00 sec. (2.57 ticks)
Tried aggregator 1 time.
Reduced MIP has 217 rows, 1005 columns, and 5017 nonzeros.
Reduced MIP has 1005 binaries, 0 generals, 0 SOSs, and 0 indicators.
Presolve time = 0.00 sec. (2.55 ticks)
Probing time = 0.02 sec. (2.63 ticks)
Clique table members: 3264.
MIP emphasis: balance optimality and feasibility.
MIP search method: dynamic search.
Parallel mode: deterministic, using up to 4 threads.
Root relaxation solution time = 0.00 sec. (3.94 ticks)

        Nodes                                         Cuts/
   Node  Left     Objective  IInf  Best Integer    Best Bound    ItCnt     Gap

*     0+    0                            0.0000     5974.0000              --- 
*     0+    0                          586.0000     5974.0000           919.45%
      0     0     2086.2100     5      586.0000     2086.2100      300  256.01%
      0     0     1669.8310   148      586.0000     Cuts: 154      533  184.95%
*     0+    0                         1317.0000     1669.8310            26.79%
      0     0     1534.1851   254     1317.0000     Cuts: 154      702   16.49%
*     0+    0                         1365.0000     1534.1851            12.39%
      0     0        cutoff           1365.0000     1365.0000      864    0.00%
Elapsed time = 0.11 sec. (100.40 ticks, tree = 0.01 MB, solutions = 4)

Clique cuts applied:  317
Cover cuts applied:  7
Implied bound cuts applied:  1
Mixed integer rounding cuts applied:  7
Zero-half cuts applied:  8

Root node processing (before b&c):
  Real time             =    0.11 sec. (100.49 ticks)
Parallel b&c, 4 threads:
  Real time             =    0.00 sec. (0.00 ticks)
  Sync time (average)   =    0.00 sec.
  Wait time (average)   =    0.00 sec.
                          ------------
Total (root+branch&cut) =    0.11 sec. (100.49 ticks)
